416
3607
3409
1046
1636
232
3366
2404
1840
1573
1162
3213
4050
304
659
1088
3891
1139
2908
167
3358
1318
1647
190
851
1171
2927
4043
1203
3114
3884
450
1454
323
2895
2989
4156
3162
2799
2150
2506
1336
2106
1349
4112
2099
3997
1410
156
717
2294
447
2915
1433
1537
3908
1897
2083
1224
2290
2368
2988
2752
1415
1089
1856
2100
887
2891
3597
2066
2195
1365
3561
1258
468
2976
231
1954
3260
1585
2677
2983
1118
3311
3700
2284
1073
2638
3271
3944
2760
3998
730
2964
4028
744
1136
334
2530
